language ESSENCE' 1.0
letting mainRow be 11
letting mainCol be 7
letting topRows be 6
letting leftCols be 4
letting leftMatrix be [ 
[3, 0, 0, 0], 
[4, 2, 0, 0], 
[1, 1, 1, 0], 
[7, 0, 0, 0], 
[1, 0, 0, 0], 
[1, 0, 0, 0], 
[2, 1, 2, 0], 
[5, 0, 0, 0], 
[3, 0, 0, 0], 
[1, 0, 0, 0], 
[0, 0, 0, 0], 
]
letting topMatrix be [ 
[3, 1, 1, 10, 1, 2, 3], 
[1, 1, 1, 0, 1, 1, 1], 
[0, 2, 2, 0, 2, 2, 0], 
[0, 0, 0, 0, 0, 0, 0], 
[0, 0, 0, 0, 0, 0, 0], 
[0, 0, 0, 0, 0, 0, 0], 
] 
